(declare-fun b1326 () (_ FloatingPoint 8 24))
(declare-fun b245 () (_ FloatingPoint 8 24))
(declare-fun b1410 () (_ FloatingPoint 8 24))
(declare-fun b1465 () (_ FloatingPoint 8 24))
(declare-fun b1246 () (_ FloatingPoint 8 24))
(declare-fun b262 () (_ FloatingPoint 11 53))
(declare-fun b1385 () (_ FloatingPoint 8 24))
(declare-fun b252 () (_ FloatingPoint 8 24))
(declare-fun b418 () (_ FloatingPoint 11 53))
(declare-fun b1365 () (_ FloatingPoint 8 24))
(declare-fun b1360 () (_ FloatingPoint 8 24))
(declare-fun b385 () (_ FloatingPoint 11 53))
(declare-fun b1445 () (_ FloatingPoint 8 24))
(declare-fun b1390 () (_ FloatingPoint 8 24))
(declare-fun b1450 () (_ FloatingPoint 8 24))
(declare-fun b275 () (_ FloatingPoint 11 53))
(declare-fun b1425 () (_ FloatingPoint 8 24))
(declare-fun b402 () (_ FloatingPoint 11 53))
(declare-fun b1231 () (_ FloatingPoint 8 24))
(declare-fun b520 () (_ FloatingPoint 11 53))
(declare-fun b351 () (_ FloatingPoint 11 53))
(declare-fun b1219 () (_ FloatingPoint 8 24))
(declare-fun b334 () (_ FloatingPoint 11 53))
(declare-fun b503 () (_ FloatingPoint 11 53))
(declare-fun b452 () (_ FloatingPoint 11 53))
(declare-fun b1271 () (_ FloatingPoint 8 24))
(declare-fun b1395 () (_ FloatingPoint 8 24))
(declare-fun b1266 () (_ FloatingPoint 8 24))
(declare-fun b588 () (_ FloatingPoint 11 53))
(declare-fun b1400 () (_ FloatingPoint 8 24))
(declare-fun b1301 () (_ FloatingPoint 8 24))
(declare-fun b571 () (_ FloatingPoint 11 53))
(declare-fun b435 () (_ FloatingPoint 11 53))
(declare-fun b672 () (_ FloatingPoint 11 53))
(declare-fun b1455 () (_ FloatingPoint 8 24))
(declare-fun b1236 () (_ FloatingPoint 8 24))
(declare-fun b317 () (_ FloatingPoint 11 53))
(declare-fun b1370 () (_ FloatingPoint 8 24))
(declare-fun b1420 () (_ FloatingPoint 8 24))
(declare-fun b1281 () (_ FloatingPoint 8 24))
(declare-fun b1440 () (_ FloatingPoint 8 24))
(declare-fun b1261 () (_ FloatingPoint 8 24))
(declare-fun b1316 () (_ FloatingPoint 8 24))
(declare-fun b1331 () (_ FloatingPoint 8 24))
(declare-fun b1321 () (_ FloatingPoint 8 24))
(declare-fun b1435 () (_ FloatingPoint 8 24))
(declare-fun b1276 () (_ FloatingPoint 8 24))
(declare-fun b554 () (_ FloatingPoint 11 53))
(declare-fun b1336 () (_ FloatingPoint 8 24))
(declare-fun b1311 () (_ FloatingPoint 8 24))
(declare-fun b300 () (_ FloatingPoint 11 53))
(declare-fun b1306 () (_ FloatingPoint 8 24))
(declare-fun b621 () (_ FloatingPoint 11 53))
(declare-fun b837 () (_ FloatingPoint 8 24))
(declare-fun b1355 () (_ FloatingPoint 8 24))
(declare-fun b537 () (_ FloatingPoint 11 53))
(declare-fun b655 () (_ FloatingPoint 11 53))
(declare-fun b1226 () (_ FloatingPoint 8 24))
(declare-fun b368 () (_ FloatingPoint 11 53))
(declare-fun b1286 () (_ FloatingPoint 8 24))
(declare-fun b1430 () (_ FloatingPoint 8 24))
(declare-fun b1291 () (_ FloatingPoint 8 24))
(declare-fun b1214 () (_ FloatingPoint 8 24))
(declare-fun b1296 () (_ FloatingPoint 8 24))
(declare-fun b469 () (_ FloatingPoint 11 53))
(declare-fun b1241 () (_ FloatingPoint 8 24))
(declare-fun b1345 () (_ FloatingPoint 8 24))
(declare-fun b1405 () (_ FloatingPoint 8 24))
(declare-fun b1415 () (_ FloatingPoint 8 24))
(declare-fun b1380 () (_ FloatingPoint 8 24))
(declare-fun b604 () (_ FloatingPoint 11 53))
(declare-fun b1375 () (_ FloatingPoint 8 24))
(declare-fun b638 () (_ FloatingPoint 11 53))
(declare-fun b243 () (_ FloatingPoint 8 24))
(declare-fun b840 () (_ FloatingPoint 8 24))
(declare-fun b1221 () (_ FloatingPoint 8 24))
(declare-fun b486 () (_ FloatingPoint 11 53))
(declare-fun b1251 () (_ FloatingPoint 8 24))
(declare-fun b1350 () (_ FloatingPoint 8 24))
(declare-fun b1256 () (_ FloatingPoint 8 24))
(declare-fun b284 () (_ FloatingPoint 11 53))
(declare-fun b1460 () (_ FloatingPoint 8 24))
(assert (let ((.def_684 ((_ to_fp 11 53) RNE b1345)))
(let ((.def_685 (fp.leq b275 .def_684)))
(let ((.def_686 (not .def_685)))
(let ((.def_10 (fp.mul RNE b243 b243)))
(let ((.def_11 (fp.neg .def_10)))
(let ((.def_12 (fp.mul RNE b243 .def_11)))
(let ((.def_13 ((_ to_fp 11 53) RNE .def_12)))
(let ((.def_15 (fp.div RNE .def_13 b262)))
(let ((.def_16 ((_ to_fp 8 24) RNE .def_15)))
(let ((.def_681 (fp.neg .def_16)))
(let ((.def_682 (= b1465 .def_681)))
(let ((.def_678 (fp.leq b245 .def_16)))
(let ((.def_679 (not .def_678)))
(let ((.def_20 (fp.mul RNE .def_11 .def_16)))
(let ((.def_21 ((_ to_fp 11 53) RNE .def_20)))
(let ((.def_23 (fp.div RNE .def_21 b284)))
(let ((.def_24 ((_ to_fp 8 24) RNE .def_23)))
(let ((.def_674 (fp.neg .def_24)))
(let ((.def_675 (= b1460 .def_674)))
(let ((.def_671 (fp.leq b245 .def_24)))
(let ((.def_672 (not .def_671)))
(let ((.def_28 (fp.mul RNE .def_11 .def_24)))
(let ((.def_29 ((_ to_fp 11 53) RNE .def_28)))
(let ((.def_31 (fp.div RNE .def_29 b300)))
(let ((.def_32 ((_ to_fp 8 24) RNE .def_31)))
(let ((.def_667 (fp.neg .def_32)))
(let ((.def_668 (= b1455 .def_667)))
(let ((.def_664 (fp.leq b245 .def_32)))
(let ((.def_665 (not .def_664)))
(let ((.def_36 (fp.mul RNE .def_11 .def_32)))
(let ((.def_37 ((_ to_fp 11 53) RNE .def_36)))
(let ((.def_39 (fp.div RNE .def_37 b317)))
(let ((.def_40 ((_ to_fp 8 24) RNE .def_39)))
(let ((.def_660 (fp.neg .def_40)))
(let ((.def_661 (= b1450 .def_660)))
(let ((.def_657 (fp.leq b245 .def_40)))
(let ((.def_658 (not .def_657)))
(let ((.def_44 (fp.mul RNE .def_11 .def_40)))
(let ((.def_45 ((_ to_fp 11 53) RNE .def_44)))
(let ((.def_47 (fp.div RNE .def_45 b334)))
(let ((.def_48 ((_ to_fp 8 24) RNE .def_47)))
(let ((.def_653 (fp.neg .def_48)))
(let ((.def_654 (= b1445 .def_653)))
(let ((.def_650 (fp.leq b245 .def_48)))
(let ((.def_651 (not .def_650)))
(let ((.def_52 (fp.mul RNE .def_11 .def_48)))
(let ((.def_53 ((_ to_fp 11 53) RNE .def_52)))
(let ((.def_55 (fp.div RNE .def_53 b351)))
(let ((.def_56 ((_ to_fp 8 24) RNE .def_55)))
(let ((.def_646 (fp.neg .def_56)))
(let ((.def_647 (= b1440 .def_646)))
(let ((.def_643 (fp.leq b245 .def_56)))
(let ((.def_644 (not .def_643)))
(let ((.def_60 (fp.mul RNE .def_11 .def_56)))
(let ((.def_61 ((_ to_fp 11 53) RNE .def_60)))
(let ((.def_63 (fp.div RNE .def_61 b368)))
(let ((.def_64 ((_ to_fp 8 24) RNE .def_63)))
(let ((.def_639 (fp.neg .def_64)))
(let ((.def_640 (= b1435 .def_639)))
(let ((.def_636 (fp.leq b245 .def_64)))
(let ((.def_637 (not .def_636)))
(let ((.def_68 (fp.mul RNE .def_11 .def_64)))
(let ((.def_69 ((_ to_fp 11 53) RNE .def_68)))
(let ((.def_71 (fp.div RNE .def_69 b385)))
(let ((.def_72 ((_ to_fp 8 24) RNE .def_71)))
(let ((.def_632 (fp.neg .def_72)))
(let ((.def_633 (= b1430 .def_632)))
(let ((.def_629 (fp.leq b245 .def_72)))
(let ((.def_630 (not .def_629)))
(let ((.def_76 (fp.mul RNE .def_11 .def_72)))
(let ((.def_77 ((_ to_fp 11 53) RNE .def_76)))
(let ((.def_79 (fp.div RNE .def_77 b402)))
(let ((.def_80 ((_ to_fp 8 24) RNE .def_79)))
(let ((.def_625 (fp.neg .def_80)))
(let ((.def_626 (= b1425 .def_625)))
(let ((.def_622 (fp.leq b245 .def_80)))
(let ((.def_623 (not .def_622)))
(let ((.def_84 (fp.mul RNE .def_11 .def_80)))
(let ((.def_85 ((_ to_fp 11 53) RNE .def_84)))
(let ((.def_87 (fp.div RNE .def_85 b418)))
(let ((.def_88 ((_ to_fp 8 24) RNE .def_87)))
(let ((.def_618 (fp.neg .def_88)))
(let ((.def_619 (= b1420 .def_618)))
(let ((.def_615 (fp.leq b245 .def_88)))
(let ((.def_616 (not .def_615)))
(let ((.def_92 (fp.mul RNE .def_11 .def_88)))
(let ((.def_93 ((_ to_fp 11 53) RNE .def_92)))
(let ((.def_95 (fp.div RNE .def_93 b435)))
(let ((.def_96 ((_ to_fp 8 24) RNE .def_95)))
(let ((.def_611 (fp.neg .def_96)))
(let ((.def_612 (= b1415 .def_611)))
(let ((.def_608 (fp.leq b245 .def_96)))
(let ((.def_609 (not .def_608)))
(let ((.def_100 (fp.mul RNE .def_11 .def_96)))
(let ((.def_101 ((_ to_fp 11 53) RNE .def_100)))
(let ((.def_103 (fp.div RNE .def_101 b452)))
(let ((.def_104 ((_ to_fp 8 24) RNE .def_103)))
(let ((.def_604 (fp.neg .def_104)))
(let ((.def_605 (= b1410 .def_604)))
(let ((.def_601 (fp.leq b245 .def_104)))
(let ((.def_602 (not .def_601)))
(let ((.def_108 (fp.mul RNE .def_11 .def_104)))
(let ((.def_109 ((_ to_fp 11 53) RNE .def_108)))
(let ((.def_111 (fp.div RNE .def_109 b469)))
(let ((.def_112 ((_ to_fp 8 24) RNE .def_111)))
(let ((.def_597 (fp.neg .def_112)))
(let ((.def_598 (= b1405 .def_597)))
(let ((.def_594 (fp.leq b245 .def_112)))
(let ((.def_595 (not .def_594)))
(let ((.def_116 (fp.mul RNE .def_11 .def_112)))
(let ((.def_117 ((_ to_fp 11 53) RNE .def_116)))
(let ((.def_119 (fp.div RNE .def_117 b486)))
(let ((.def_120 ((_ to_fp 8 24) RNE .def_119)))
(let ((.def_590 (fp.neg .def_120)))
(let ((.def_591 (= b1400 .def_590)))
(let ((.def_587 (fp.leq b245 .def_120)))
(let ((.def_588 (not .def_587)))
(let ((.def_124 (fp.mul RNE .def_11 .def_120)))
(let ((.def_125 ((_ to_fp 11 53) RNE .def_124)))
(let ((.def_127 (fp.div RNE .def_125 b503)))
(let ((.def_128 ((_ to_fp 8 24) RNE .def_127)))
(let ((.def_583 (fp.neg .def_128)))
(let ((.def_584 (= b1395 .def_583)))
(let ((.def_580 (fp.leq b245 .def_128)))
(let ((.def_581 (not .def_580)))
(let ((.def_132 (fp.mul RNE .def_11 .def_128)))
(let ((.def_133 ((_ to_fp 11 53) RNE .def_132)))
(let ((.def_135 (fp.div RNE .def_133 b520)))
(let ((.def_136 ((_ to_fp 8 24) RNE .def_135)))
(let ((.def_576 (fp.neg .def_136)))
(let ((.def_577 (= b1390 .def_576)))
(let ((.def_573 (fp.leq b245 .def_136)))
(let ((.def_574 (not .def_573)))
(let ((.def_140 (fp.mul RNE .def_11 .def_136)))
(let ((.def_141 ((_ to_fp 11 53) RNE .def_140)))
(let ((.def_143 (fp.div RNE .def_141 b537)))
(let ((.def_144 ((_ to_fp 8 24) RNE .def_143)))
(let ((.def_569 (fp.neg .def_144)))
(let ((.def_570 (= b1385 .def_569)))
(let ((.def_566 (fp.leq b245 .def_144)))
(let ((.def_567 (not .def_566)))
(let ((.def_148 (fp.mul RNE .def_11 .def_144)))
(let ((.def_149 ((_ to_fp 11 53) RNE .def_148)))
(let ((.def_151 (fp.div RNE .def_149 b554)))
(let ((.def_152 ((_ to_fp 8 24) RNE .def_151)))
(let ((.def_562 (fp.neg .def_152)))
(let ((.def_563 (= b1380 .def_562)))
(let ((.def_559 (fp.leq b245 .def_152)))
(let ((.def_560 (not .def_559)))
(let ((.def_156 (fp.mul RNE .def_11 .def_152)))
(let ((.def_157 ((_ to_fp 11 53) RNE .def_156)))
(let ((.def_159 (fp.div RNE .def_157 b571)))
(let ((.def_160 ((_ to_fp 8 24) RNE .def_159)))
(let ((.def_555 (fp.neg .def_160)))
(let ((.def_556 (= b1375 .def_555)))
(let ((.def_552 (fp.leq b245 .def_160)))
(let ((.def_553 (not .def_552)))
(let ((.def_164 (fp.mul RNE .def_11 .def_160)))
(let ((.def_165 ((_ to_fp 11 53) RNE .def_164)))
(let ((.def_167 (fp.div RNE .def_165 b588)))
(let ((.def_168 ((_ to_fp 8 24) RNE .def_167)))
(let ((.def_548 (fp.neg .def_168)))
(let ((.def_549 (= b1370 .def_548)))
(let ((.def_545 (fp.leq b245 .def_168)))
(let ((.def_546 (not .def_545)))
(let ((.def_172 (fp.mul RNE .def_11 .def_168)))
(let ((.def_173 ((_ to_fp 11 53) RNE .def_172)))
(let ((.def_175 (fp.div RNE .def_173 b604)))
(let ((.def_176 ((_ to_fp 8 24) RNE .def_175)))
(let ((.def_541 (fp.neg .def_176)))
(let ((.def_542 (= b1365 .def_541)))
(let ((.def_538 (fp.leq b245 .def_176)))
(let ((.def_539 (not .def_538)))
(let ((.def_180 (fp.mul RNE .def_11 .def_176)))
(let ((.def_181 ((_ to_fp 11 53) RNE .def_180)))
(let ((.def_183 (fp.div RNE .def_181 b621)))
(let ((.def_184 ((_ to_fp 8 24) RNE .def_183)))
(let ((.def_534 (fp.neg .def_184)))
(let ((.def_535 (= b1360 .def_534)))
(let ((.def_531 (fp.leq b245 .def_184)))
(let ((.def_532 (not .def_531)))
(let ((.def_188 (fp.mul RNE .def_11 .def_184)))
(let ((.def_189 ((_ to_fp 11 53) RNE .def_188)))
(let ((.def_191 (fp.div RNE .def_189 b638)))
(let ((.def_192 ((_ to_fp 8 24) RNE .def_191)))
(let ((.def_527 (fp.neg .def_192)))
(let ((.def_528 (= b1355 .def_527)))
(let ((.def_524 (fp.leq b245 .def_192)))
(let ((.def_525 (not .def_524)))
(let ((.def_196 (fp.mul RNE .def_11 .def_192)))
(let ((.def_197 ((_ to_fp 11 53) RNE .def_196)))
(let ((.def_199 (fp.div RNE .def_197 b655)))
(let ((.def_200 ((_ to_fp 8 24) RNE .def_199)))
(let ((.def_520 (fp.neg .def_200)))
(let ((.def_521 (= b1350 .def_520)))
(let ((.def_517 (fp.leq b245 .def_200)))
(let ((.def_518 (not .def_517)))
(let ((.def_204 (fp.mul RNE .def_11 .def_200)))
(let ((.def_205 ((_ to_fp 11 53) RNE .def_204)))
(let ((.def_207 (fp.div RNE .def_205 b672)))
(let ((.def_208 ((_ to_fp 8 24) RNE .def_207)))
(let ((.def_513 (fp.neg .def_208)))
(let ((.def_514 (= b1345 .def_513)))
(let ((.def_510 (fp.leq b245 .def_208)))
(let ((.def_511 (not .def_510)))
(let ((.def_282 (fp.add RNE b243 .def_16)))
(let ((.def_507 (= b1219 .def_282)))
(let ((.def_503 ((_ to_fp 11 53) RNE b1465)))
(let ((.def_504 (fp.leq b275 .def_503)))
(let ((.def_505 (not .def_504)))
(let ((.def_283 (fp.add RNE .def_24 .def_282)))
(let ((.def_500 (= b1336 .def_283)))
(let ((.def_496 ((_ to_fp 11 53) RNE b1460)))
(let ((.def_497 (fp.leq b275 .def_496)))
(let ((.def_498 (not .def_497)))
(let ((.def_284 (fp.add RNE .def_32 .def_283)))
(let ((.def_493 (= b1331 .def_284)))
(let ((.def_489 ((_ to_fp 11 53) RNE b1455)))
(let ((.def_490 (fp.leq b275 .def_489)))
(let ((.def_491 (not .def_490)))
(let ((.def_285 (fp.add RNE .def_40 .def_284)))
(let ((.def_486 (= b1326 .def_285)))
(let ((.def_482 ((_ to_fp 11 53) RNE b1450)))
(let ((.def_483 (fp.leq b275 .def_482)))
(let ((.def_484 (not .def_483)))
(let ((.def_286 (fp.add RNE .def_48 .def_285)))
(let ((.def_479 (= b1321 .def_286)))
(let ((.def_475 ((_ to_fp 11 53) RNE b1445)))
(let ((.def_476 (fp.leq b275 .def_475)))
(let ((.def_477 (not .def_476)))
(let ((.def_287 (fp.add RNE .def_56 .def_286)))
(let ((.def_472 (= b1316 .def_287)))
(let ((.def_468 ((_ to_fp 11 53) RNE b1440)))
(let ((.def_469 (fp.leq b275 .def_468)))
(let ((.def_470 (not .def_469)))
(let ((.def_288 (fp.add RNE .def_64 .def_287)))
(let ((.def_465 (= b1311 .def_288)))
(let ((.def_461 ((_ to_fp 11 53) RNE b1435)))
(let ((.def_462 (fp.leq b275 .def_461)))
(let ((.def_463 (not .def_462)))
(let ((.def_289 (fp.add RNE .def_72 .def_288)))
(let ((.def_458 (= b1306 .def_289)))
(let ((.def_454 ((_ to_fp 11 53) RNE b1430)))
(let ((.def_455 (fp.leq b275 .def_454)))
(let ((.def_456 (not .def_455)))
(let ((.def_290 (fp.add RNE .def_80 .def_289)))
(let ((.def_451 (= b1301 .def_290)))
(let ((.def_447 ((_ to_fp 11 53) RNE b1425)))
(let ((.def_448 (fp.leq b275 .def_447)))
(let ((.def_449 (not .def_448)))
(let ((.def_291 (fp.add RNE .def_88 .def_290)))
(let ((.def_444 (= b1296 .def_291)))
(let ((.def_440 ((_ to_fp 11 53) RNE b1420)))
(let ((.def_441 (fp.leq b275 .def_440)))
(let ((.def_442 (not .def_441)))
(let ((.def_292 (fp.add RNE .def_96 .def_291)))
(let ((.def_437 (= b1291 .def_292)))
(let ((.def_433 ((_ to_fp 11 53) RNE b1415)))
(let ((.def_434 (fp.leq b275 .def_433)))
(let ((.def_435 (not .def_434)))
(let ((.def_293 (fp.add RNE .def_104 .def_292)))
(let ((.def_430 (= b1286 .def_293)))
(let ((.def_426 ((_ to_fp 11 53) RNE b1410)))
(let ((.def_427 (fp.leq b275 .def_426)))
(let ((.def_428 (not .def_427)))
(let ((.def_294 (fp.add RNE .def_112 .def_293)))
(let ((.def_423 (= b1281 .def_294)))
(let ((.def_419 ((_ to_fp 11 53) RNE b1405)))
(let ((.def_420 (fp.leq b275 .def_419)))
(let ((.def_421 (not .def_420)))
(let ((.def_295 (fp.add RNE .def_120 .def_294)))
(let ((.def_416 (= b1276 .def_295)))
(let ((.def_412 ((_ to_fp 11 53) RNE b1400)))
(let ((.def_413 (fp.leq b275 .def_412)))
(let ((.def_414 (not .def_413)))
(let ((.def_296 (fp.add RNE .def_128 .def_295)))
(let ((.def_409 (= b1271 .def_296)))
(let ((.def_405 ((_ to_fp 11 53) RNE b1395)))
(let ((.def_406 (fp.leq b275 .def_405)))
(let ((.def_407 (not .def_406)))
(let ((.def_297 (fp.add RNE .def_136 .def_296)))
(let ((.def_402 (= b1266 .def_297)))
(let ((.def_398 ((_ to_fp 11 53) RNE b1390)))
(let ((.def_399 (fp.leq b275 .def_398)))
(let ((.def_400 (not .def_399)))
(let ((.def_298 (fp.add RNE .def_144 .def_297)))
(let ((.def_395 (= b1261 .def_298)))
(let ((.def_391 ((_ to_fp 11 53) RNE b1385)))
(let ((.def_392 (fp.leq b275 .def_391)))
(let ((.def_393 (not .def_392)))
(let ((.def_299 (fp.add RNE .def_152 .def_298)))
(let ((.def_388 (= b1256 .def_299)))
(let ((.def_384 ((_ to_fp 11 53) RNE b1380)))
(let ((.def_385 (fp.leq b275 .def_384)))
(let ((.def_386 (not .def_385)))
(let ((.def_300 (fp.add RNE .def_160 .def_299)))
(let ((.def_381 (= b1251 .def_300)))
(let ((.def_377 ((_ to_fp 11 53) RNE b1375)))
(let ((.def_378 (fp.leq b275 .def_377)))
(let ((.def_379 (not .def_378)))
(let ((.def_301 (fp.add RNE .def_168 .def_300)))
(let ((.def_374 (= b1246 .def_301)))
(let ((.def_370 ((_ to_fp 11 53) RNE b1370)))
(let ((.def_371 (fp.leq b275 .def_370)))
(let ((.def_372 (not .def_371)))
(let ((.def_302 (fp.add RNE .def_176 .def_301)))
(let ((.def_367 (= b1241 .def_302)))
(let ((.def_363 ((_ to_fp 11 53) RNE b1365)))
(let ((.def_364 (fp.leq b275 .def_363)))
(let ((.def_365 (not .def_364)))
(let ((.def_303 (fp.add RNE .def_184 .def_302)))
(let ((.def_360 (= b1236 .def_303)))
(let ((.def_356 ((_ to_fp 11 53) RNE b1360)))
(let ((.def_357 (fp.leq b275 .def_356)))
(let ((.def_358 (not .def_357)))
(let ((.def_304 (fp.add RNE .def_192 .def_303)))
(let ((.def_353 (= b1231 .def_304)))
(let ((.def_349 ((_ to_fp 11 53) RNE b1355)))
(let ((.def_350 (fp.leq b275 .def_349)))
(let ((.def_351 (not .def_350)))
(let ((.def_346 (fp.leq b243 b840)))
(let ((.def_344 (fp.leq b837 b243)))
(let ((.def_341 (fp.leq b1214 b840)))
(let ((.def_337 (fp.leq b1221 b252)))
(let ((.def_338 (not .def_337)))
(let ((.def_305 (fp.add RNE .def_200 .def_304)))
(let ((.def_334 (= b1226 .def_305)))
(let ((.def_329 ((_ to_fp 11 53) RNE b1350)))
(let ((.def_331 (fp.leq b275 .def_329)))
(let ((.def_332 (not .def_331)))
(let ((.def_325 (fp.neg b1219)))
(let ((.def_326 (= b1221 .def_325)))
(let ((.def_322 (fp.leq b245 b1219)))
(let ((.def_323 (not .def_322)))
(let ((.def_318 (fp.neg b243)))
(let ((.def_319 (= b1214 .def_318)))
(let ((.def_316 (fp.leq b245 b243)))
(let ((.def_317 (not .def_316)))
(let ((.def_320 (and .def_317 .def_319)))
(let ((.def_313 (= b243 b1214)))
(let ((.def_314 (not .def_313)))
(let ((.def_321 (and .def_314 .def_320)))
(let ((.def_324 (and .def_321 .def_323)))
(let ((.def_327 (and .def_324 .def_326)))
(let ((.def_310 (= b1219 b1221)))
(let ((.def_311 (not .def_310)))
(let ((.def_328 (and .def_311 .def_327)))
(let ((.def_333 (and .def_328 .def_332)))
(let ((.def_335 (and .def_333 .def_334)))
(let ((.def_339 (and .def_335 .def_338)))
(let ((.def_342 (and .def_339 .def_341)))
(let ((.def_345 (and .def_342 .def_344)))
(let ((.def_347 (and .def_345 .def_346)))
(let ((.def_306 (fp.add RNE .def_208 .def_305)))
(let ((.def_307 (= b1226 .def_306)))
(let ((.def_308 (not .def_307)))
(let ((.def_348 (and .def_308 .def_347)))
(let ((.def_352 (and .def_348 .def_351)))
(let ((.def_354 (and .def_352 .def_353)))
(let ((.def_280 (= b1231 b1226)))
(let ((.def_281 (not .def_280)))
(let ((.def_355 (and .def_281 .def_354)))
(let ((.def_359 (and .def_355 .def_358)))
(let ((.def_361 (and .def_359 .def_360)))
(let ((.def_277 (= b1236 b1231)))
(let ((.def_278 (not .def_277)))
(let ((.def_362 (and .def_278 .def_361)))
(let ((.def_366 (and .def_362 .def_365)))
(let ((.def_368 (and .def_366 .def_367)))
(let ((.def_274 (= b1241 b1236)))
(let ((.def_275 (not .def_274)))
(let ((.def_369 (and .def_275 .def_368)))
(let ((.def_373 (and .def_369 .def_372)))
(let ((.def_375 (and .def_373 .def_374)))
(let ((.def_271 (= b1246 b1241)))
(let ((.def_272 (not .def_271)))
(let ((.def_376 (and .def_272 .def_375)))
(let ((.def_380 (and .def_376 .def_379)))
(let ((.def_382 (and .def_380 .def_381)))
(let ((.def_268 (= b1251 b1246)))
(let ((.def_269 (not .def_268)))
(let ((.def_383 (and .def_269 .def_382)))
(let ((.def_387 (and .def_383 .def_386)))
(let ((.def_389 (and .def_387 .def_388)))
(let ((.def_265 (= b1256 b1251)))
(let ((.def_266 (not .def_265)))
(let ((.def_390 (and .def_266 .def_389)))
(let ((.def_394 (and .def_390 .def_393)))
(let ((.def_396 (and .def_394 .def_395)))
(let ((.def_262 (= b1261 b1256)))
(let ((.def_263 (not .def_262)))
(let ((.def_397 (and .def_263 .def_396)))
(let ((.def_401 (and .def_397 .def_400)))
(let ((.def_403 (and .def_401 .def_402)))
(let ((.def_259 (= b1266 b1261)))
(let ((.def_260 (not .def_259)))
(let ((.def_404 (and .def_260 .def_403)))
(let ((.def_408 (and .def_404 .def_407)))
(let ((.def_410 (and .def_408 .def_409)))
(let ((.def_256 (= b1271 b1266)))
(let ((.def_257 (not .def_256)))
(let ((.def_411 (and .def_257 .def_410)))
(let ((.def_415 (and .def_411 .def_414)))
(let ((.def_417 (and .def_415 .def_416)))
(let ((.def_253 (= b1276 b1271)))
(let ((.def_254 (not .def_253)))
(let ((.def_418 (and .def_254 .def_417)))
(let ((.def_422 (and .def_418 .def_421)))
(let ((.def_424 (and .def_422 .def_423)))
(let ((.def_250 (= b1281 b1276)))
(let ((.def_251 (not .def_250)))
(let ((.def_425 (and .def_251 .def_424)))
(let ((.def_429 (and .def_425 .def_428)))
(let ((.def_431 (and .def_429 .def_430)))
(let ((.def_247 (= b1286 b1281)))
(let ((.def_248 (not .def_247)))
(let ((.def_432 (and .def_248 .def_431)))
(let ((.def_436 (and .def_432 .def_435)))
(let ((.def_438 (and .def_436 .def_437)))
(let ((.def_244 (= b1291 b1286)))
(let ((.def_245 (not .def_244)))
(let ((.def_439 (and .def_245 .def_438)))
(let ((.def_443 (and .def_439 .def_442)))
(let ((.def_445 (and .def_443 .def_444)))
(let ((.def_241 (= b1296 b1291)))
(let ((.def_242 (not .def_241)))
(let ((.def_446 (and .def_242 .def_445)))
(let ((.def_450 (and .def_446 .def_449)))
(let ((.def_452 (and .def_450 .def_451)))
(let ((.def_238 (= b1301 b1296)))
(let ((.def_239 (not .def_238)))
(let ((.def_453 (and .def_239 .def_452)))
(let ((.def_457 (and .def_453 .def_456)))
(let ((.def_459 (and .def_457 .def_458)))
(let ((.def_235 (= b1306 b1301)))
(let ((.def_236 (not .def_235)))
(let ((.def_460 (and .def_236 .def_459)))
(let ((.def_464 (and .def_460 .def_463)))
(let ((.def_466 (and .def_464 .def_465)))
(let ((.def_232 (= b1311 b1306)))
(let ((.def_233 (not .def_232)))
(let ((.def_467 (and .def_233 .def_466)))
(let ((.def_471 (and .def_467 .def_470)))
(let ((.def_473 (and .def_471 .def_472)))
(let ((.def_229 (= b1316 b1311)))
(let ((.def_230 (not .def_229)))
(let ((.def_474 (and .def_230 .def_473)))
(let ((.def_478 (and .def_474 .def_477)))
(let ((.def_480 (and .def_478 .def_479)))
(let ((.def_226 (= b1321 b1316)))
(let ((.def_227 (not .def_226)))
(let ((.def_481 (and .def_227 .def_480)))
(let ((.def_485 (and .def_481 .def_484)))
(let ((.def_487 (and .def_485 .def_486)))
(let ((.def_223 (= b1326 b1321)))
(let ((.def_224 (not .def_223)))
(let ((.def_488 (and .def_224 .def_487)))
(let ((.def_492 (and .def_488 .def_491)))
(let ((.def_494 (and .def_492 .def_493)))
(let ((.def_220 (= b1331 b1326)))
(let ((.def_221 (not .def_220)))
(let ((.def_495 (and .def_221 .def_494)))
(let ((.def_499 (and .def_495 .def_498)))
(let ((.def_501 (and .def_499 .def_500)))
(let ((.def_217 (= b1336 b1331)))
(let ((.def_218 (not .def_217)))
(let ((.def_502 (and .def_218 .def_501)))
(let ((.def_506 (and .def_502 .def_505)))
(let ((.def_508 (and .def_506 .def_507)))
(let ((.def_214 (= b1219 b1336)))
(let ((.def_215 (not .def_214)))
(let ((.def_509 (and .def_215 .def_508)))
(let ((.def_512 (and .def_509 .def_511)))
(let ((.def_515 (and .def_512 .def_514)))
(let ((.def_210 (= .def_208 b1345)))
(let ((.def_211 (not .def_210)))
(let ((.def_516 (and .def_211 .def_515)))
(let ((.def_519 (and .def_516 .def_518)))
(let ((.def_522 (and .def_519 .def_521)))
(let ((.def_202 (= .def_200 b1350)))
(let ((.def_203 (not .def_202)))
(let ((.def_523 (and .def_203 .def_522)))
(let ((.def_526 (and .def_523 .def_525)))
(let ((.def_529 (and .def_526 .def_528)))
(let ((.def_194 (= .def_192 b1355)))
(let ((.def_195 (not .def_194)))
(let ((.def_530 (and .def_195 .def_529)))
(let ((.def_533 (and .def_530 .def_532)))
(let ((.def_536 (and .def_533 .def_535)))
(let ((.def_186 (= .def_184 b1360)))
(let ((.def_187 (not .def_186)))
(let ((.def_537 (and .def_187 .def_536)))
(let ((.def_540 (and .def_537 .def_539)))
(let ((.def_543 (and .def_540 .def_542)))
(let ((.def_178 (= .def_176 b1365)))
(let ((.def_179 (not .def_178)))
(let ((.def_544 (and .def_179 .def_543)))
(let ((.def_547 (and .def_544 .def_546)))
(let ((.def_550 (and .def_547 .def_549)))
(let ((.def_170 (= .def_168 b1370)))
(let ((.def_171 (not .def_170)))
(let ((.def_551 (and .def_171 .def_550)))
(let ((.def_554 (and .def_551 .def_553)))
(let ((.def_557 (and .def_554 .def_556)))
(let ((.def_162 (= .def_160 b1375)))
(let ((.def_163 (not .def_162)))
(let ((.def_558 (and .def_163 .def_557)))
(let ((.def_561 (and .def_558 .def_560)))
(let ((.def_564 (and .def_561 .def_563)))
(let ((.def_154 (= .def_152 b1380)))
(let ((.def_155 (not .def_154)))
(let ((.def_565 (and .def_155 .def_564)))
(let ((.def_568 (and .def_565 .def_567)))
(let ((.def_571 (and .def_568 .def_570)))
(let ((.def_146 (= .def_144 b1385)))
(let ((.def_147 (not .def_146)))
(let ((.def_572 (and .def_147 .def_571)))
(let ((.def_575 (and .def_572 .def_574)))
(let ((.def_578 (and .def_575 .def_577)))
(let ((.def_138 (= .def_136 b1390)))
(let ((.def_139 (not .def_138)))
(let ((.def_579 (and .def_139 .def_578)))
(let ((.def_582 (and .def_579 .def_581)))
(let ((.def_585 (and .def_582 .def_584)))
(let ((.def_130 (= .def_128 b1395)))
(let ((.def_131 (not .def_130)))
(let ((.def_586 (and .def_131 .def_585)))
(let ((.def_589 (and .def_586 .def_588)))
(let ((.def_592 (and .def_589 .def_591)))
(let ((.def_122 (= .def_120 b1400)))
(let ((.def_123 (not .def_122)))
(let ((.def_593 (and .def_123 .def_592)))
(let ((.def_596 (and .def_593 .def_595)))
(let ((.def_599 (and .def_596 .def_598)))
(let ((.def_114 (= .def_112 b1405)))
(let ((.def_115 (not .def_114)))
(let ((.def_600 (and .def_115 .def_599)))
(let ((.def_603 (and .def_600 .def_602)))
(let ((.def_606 (and .def_603 .def_605)))
(let ((.def_106 (= .def_104 b1410)))
(let ((.def_107 (not .def_106)))
(let ((.def_607 (and .def_107 .def_606)))
(let ((.def_610 (and .def_607 .def_609)))
(let ((.def_613 (and .def_610 .def_612)))
(let ((.def_98 (= .def_96 b1415)))
(let ((.def_99 (not .def_98)))
(let ((.def_614 (and .def_99 .def_613)))
(let ((.def_617 (and .def_614 .def_616)))
(let ((.def_620 (and .def_617 .def_619)))
(let ((.def_90 (= .def_88 b1420)))
(let ((.def_91 (not .def_90)))
(let ((.def_621 (and .def_91 .def_620)))
(let ((.def_624 (and .def_621 .def_623)))
(let ((.def_627 (and .def_624 .def_626)))
(let ((.def_82 (= .def_80 b1425)))
(let ((.def_83 (not .def_82)))
(let ((.def_628 (and .def_83 .def_627)))
(let ((.def_631 (and .def_628 .def_630)))
(let ((.def_634 (and .def_631 .def_633)))
(let ((.def_74 (= .def_72 b1430)))
(let ((.def_75 (not .def_74)))
(let ((.def_635 (and .def_75 .def_634)))
(let ((.def_638 (and .def_635 .def_637)))
(let ((.def_641 (and .def_638 .def_640)))
(let ((.def_66 (= .def_64 b1435)))
(let ((.def_67 (not .def_66)))
(let ((.def_642 (and .def_67 .def_641)))
(let ((.def_645 (and .def_642 .def_644)))
(let ((.def_648 (and .def_645 .def_647)))
(let ((.def_58 (= .def_56 b1440)))
(let ((.def_59 (not .def_58)))
(let ((.def_649 (and .def_59 .def_648)))
(let ((.def_652 (and .def_649 .def_651)))
(let ((.def_655 (and .def_652 .def_654)))
(let ((.def_50 (= .def_48 b1445)))
(let ((.def_51 (not .def_50)))
(let ((.def_656 (and .def_51 .def_655)))
(let ((.def_659 (and .def_656 .def_658)))
(let ((.def_662 (and .def_659 .def_661)))
(let ((.def_42 (= .def_40 b1450)))
(let ((.def_43 (not .def_42)))
(let ((.def_663 (and .def_43 .def_662)))
(let ((.def_666 (and .def_663 .def_665)))
(let ((.def_669 (and .def_666 .def_668)))
(let ((.def_34 (= .def_32 b1455)))
(let ((.def_35 (not .def_34)))
(let ((.def_670 (and .def_35 .def_669)))
(let ((.def_673 (and .def_670 .def_672)))
(let ((.def_676 (and .def_673 .def_675)))
(let ((.def_26 (= .def_24 b1460)))
(let ((.def_27 (not .def_26)))
(let ((.def_677 (and .def_27 .def_676)))
(let ((.def_680 (and .def_677 .def_679)))
(let ((.def_683 (and .def_680 .def_682)))
(let ((.def_687 (and .def_683 .def_686)))
(let ((.def_18 (= .def_16 b1465)))
(let ((.def_19 (not .def_18)))
(let ((.def_688 (and .def_19 .def_687)))
.def_688)))))))))))))))))))))))))))))))))))))))))))))))))))))))))))))))))))))))))))))))))))))))))))))))))))))))))))))))))))))))))))))))))))))))))))))))))))))))))))))))))))))))))))))))))))))))))))))))))))))))))))))))))))))))))))))))))))))))))))))))))))))))))))))))))))))))))))))))))))))))))))))))))))))))))))))))))))))))))))))))))))))))))))))))))))))))))))))))))))))))))))))))))))))))))))))))))))))))))))))))))))))))))))))))))))))))))))))))))))))))))))))))))))))))))))))))))))))))))))))))))))))))))))))))))))))))))))))))))))))))))))))))))))))))))))))))))))))))))))))))))))))))))))))))))))))))))))))))))))))))
(check-sat)
